BAYES
400
2 2 2 2 2 2 2 2 2 2 2 2 2 2 2 2 2 2 2 2 2 2 2 2 2 2 2 2 2 2 2 2 2 2 2 2 2 2 2 2 2 2 2 2 2 2 2 2 2 2 2 2 2 2 2 2 2 2 2 2 2 2 2 2 2 2 2 2 2 2 2 2 2 2 2 2 2 2 2 2 2 2 2 2 2 2 2 2 2 2 2 2 2 2 2 2 2 2 2 2 2 2 2 2 2 2 2 2 2 2 2 2 2 2 2 2 2 2 2 2 2 2 2 2 2 2 2 2 2 2 2 2 2 2 2 2 2 2 2 2 2 2 2 2 2 2 2 2 2 2 2 2 2 2 2 2 2 2 2 2 2 2 2 2 2 2 2 2 2 2 2 2 2 2 2 2 2 2 2 2 2 2 2 2 2 2 2 2 2 2 2 2 2 2 2 2 2 2 2 2 2 2 2 2 2 2 2 2 2 2 2 2 2 2 2 2 2 2 2 2 2 2 2 2 2 2 2 2 2 2 2 2 2 2 2 2 2 2 2 2 2 2 2 2 2 2 2 2 2 2 2 2 2 2 2 2 2 2 2 2 2 2 2 2 2 2 2 2 2 2 2 2 2 2 2 2 2 2 2 2 2 2 2 2 2 2 2 2 2 2 2 2 2 2 2 2 2 2 2 2 2 2 2 2 2 2 2 2 2 2 2 2 2 2 2 2 2 2 2 2 2 2 2 2 2 2 2 2 2 2 2 2 2 2 2 2 2 2 2 2 2 2 2 2 2 2 2 2 2 2 2 2 2 2 2 2 2 2 2 2 2 2 2 2 2 2 2 2 2 2 2 2 2 2 2 2 2 2 2 2 2 2 2 2 2 2 2 2 2 2 2 2 2 2 2 2 2 2 2 2
400
3 20 1 0
3 21 2 1
3 22 3 2
3 23 4 3
3 24 5 4
3 25 6 5
3 26 7 6
3 27 8 7
3 28 9 8
3 29 10 9
3 30 11 10
3 31 12 11
3 32 13 12
3 33 14 13
3 34 15 14
3 35 16 15
3 36 17 16
3 37 18 17
3 38 19 18
2 39 19
3 40 21 20
3 41 22 21
3 42 23 22
3 43 24 23
3 44 25 24
3 45 26 25
3 46 27 26
3 47 28 27
3 48 29 28
3 49 30 29
3 50 31 30
3 51 32 31
3 52 33 32
3 53 34 33
3 54 35 34
3 55 36 35
3 56 37 36
3 57 38 37
3 58 39 38
2 59 39
3 60 41 40
3 61 42 41
3 62 43 42
3 63 44 43
3 64 45 44
3 65 46 45
3 66 47 46
3 67 48 47
3 68 49 48
3 69 50 49
3 70 51 50
3 71 52 51
3 72 53 52
3 73 54 53
3 74 55 54
3 75 56 55
3 76 57 56
3 77 58 57
3 78 59 58
2 79 59
3 80 61 60
3 81 62 61
3 82 63 62
3 83 64 63
3 84 65 64
3 85 66 65
3 86 67 66
3 87 68 67
3 88 69 68
3 89 70 69
3 90 71 70
3 91 72 71
3 92 73 72
3 93 74 73
3 94 75 74
3 95 76 75
3 96 77 76
3 97 78 77
3 98 79 78
2 99 79
3 100 81 80
3 101 82 81
3 102 83 82
3 103 84 83
3 104 85 84
3 105 86 85
3 106 87 86
3 107 88 87
3 108 89 88
3 109 90 89
3 110 91 90
3 111 92 91
3 112 93 92
3 113 94 93
3 114 95 94
3 115 96 95
3 116 97 96
3 117 98 97
3 118 99 98
2 119 99
3 120 101 100
3 121 102 101
3 122 103 102
3 123 104 103
3 124 105 104
3 125 106 105
3 126 107 106
3 127 108 107
3 128 109 108
3 129 110 109
3 130 111 110
3 131 112 111
3 132 113 112
3 133 114 113
3 134 115 114
3 135 116 115
3 136 117 116
3 137 118 117
3 138 119 118
2 139 119
3 140 121 120
3 141 122 121
3 142 123 122
3 143 124 123
3 144 125 124
3 145 126 125
3 146 127 126
3 147 128 127
3 148 129 128
3 149 130 129
3 150 131 130
3 151 132 131
3 152 133 132
3 153 134 133
3 154 135 134
3 155 136 135
3 156 137 136
3 157 138 137
3 158 139 138
2 159 139
3 160 141 140
3 161 142 141
3 162 143 142
3 163 144 143
3 164 145 144
3 165 146 145
3 166 147 146
3 167 148 147
3 168 149 148
3 169 150 149
3 170 151 150
3 171 152 151
3 172 153 152
3 173 154 153
3 174 155 154
3 175 156 155
3 176 157 156
3 177 158 157
3 178 159 158
2 179 159
3 180 161 160
3 181 162 161
3 182 163 162
3 183 164 163
3 184 165 164
3 185 166 165
3 186 167 166
3 187 168 167
3 188 169 168
3 189 170 169
3 190 171 170
3 191 172 171
3 192 173 172
3 193 174 173
3 194 175 174
3 195 176 175
3 196 177 176
3 197 178 177
3 198 179 178
2 199 179
3 200 181 180
3 201 182 181
3 202 183 182
3 203 184 183
3 204 185 184
3 205 186 185
3 206 187 186
3 207 188 187
3 208 189 188
3 209 190 189
3 210 191 190
3 211 192 191
3 212 193 192
3 213 194 193
3 214 195 194
3 215 196 195
3 216 197 196
3 217 198 197
3 218 199 198
2 219 199
3 220 201 200
3 221 202 201
3 222 203 202
3 223 204 203
3 224 205 204
3 225 206 205
3 226 207 206
3 227 208 207
3 228 209 208
3 229 210 209
3 230 211 210
3 231 212 211
3 232 213 212
3 233 214 213
3 234 215 214
3 235 216 215
3 236 217 216
3 237 218 217
3 238 219 218
2 239 219
3 240 221 220
3 241 222 221
3 242 223 222
3 243 224 223
3 244 225 224
3 245 226 225
3 246 227 226
3 247 228 227
3 248 229 228
3 249 230 229
3 250 231 230
3 251 232 231
3 252 233 232
3 253 234 233
3 254 235 234
3 255 236 235
3 256 237 236
3 257 238 237
3 258 239 238
2 259 239
3 260 241 240
3 261 242 241
3 262 243 242
3 263 244 243
3 264 245 244
3 265 246 245
3 266 247 246
3 267 248 247
3 268 249 248
3 269 250 249
3 270 251 250
3 271 252 251
3 272 253 252
3 273 254 253
3 274 255 254
3 275 256 255
3 276 257 256
3 277 258 257
3 278 259 258
2 279 259
3 280 261 260
3 281 262 261
3 282 263 262
3 283 264 263
3 284 265 264
3 285 266 265
3 286 267 266
3 287 268 267
3 288 269 268
3 289 270 269
3 290 271 270
3 291 272 271
3 292 273 272
3 293 274 273
3 294 275 274
3 295 276 275
3 296 277 276
3 297 278 277
3 298 279 278
2 299 279
3 300 281 280
3 301 282 281
3 302 283 282
3 303 284 283
3 304 285 284
3 305 286 285
3 306 287 286
3 307 288 287
3 308 289 288
3 309 290 289
3 310 291 290
3 311 292 291
3 312 293 292
3 313 294 293
3 314 295 294
3 315 296 295
3 316 297 296
3 317 298 297
3 318 299 298
2 319 299
3 320 301 300
3 321 302 301
3 322 303 302
3 323 304 303
3 324 305 304
3 325 306 305
3 326 307 306
3 327 308 307
3 328 309 308
3 329 310 309
3 330 311 310
3 331 312 311
3 332 313 312
3 333 314 313
3 334 315 314
3 335 316 315
3 336 317 316
3 337 318 317
3 338 319 318
2 339 319
3 340 321 320
3 341 322 321
3 342 323 322
3 343 324 323
3 344 325 324
3 345 326 325
3 346 327 326
3 347 328 327
3 348 329 328
3 349 330 329
3 350 331 330
3 351 332 331
3 352 333 332
3 353 334 333
3 354 335 334
3 355 336 335
3 356 337 336
3 357 338 337
3 358 339 338
2 359 339
3 360 341 340
3 361 342 341
3 362 343 342
3 363 344 343
3 364 345 344
3 365 346 345
3 366 347 346
3 367 348 347
3 368 349 348
3 369 350 349
3 370 351 350
3 371 352 351
3 372 353 352
3 373 354 353
3 374 355 354
3 375 356 355
3 376 357 356
3 377 358 357
3 378 359 358
2 379 359
3 380 361 360
3 381 362 361
3 382 363 362
3 383 364 363
3 384 365 364
3 385 366 365
3 386 367 366
3 387 368 367
3 388 369 368
3 389 370 369
3 390 371 370
3 391 372 371
3 392 373 372
3 393 374 373
3 394 375 374
3 395 376 375
3 396 377 376
3 397 378 377
3 398 379 378
2 399 379
2 381 380
2 382 381
2 383 382
2 384 383
2 385 384
2 386 385
2 387 386
2 388 387
2 389 388
2 390 389
2 391 390
2 392 391
2 393 392
2 394 393
2 395 394
2 396 395
2 397 396
2 398 397
2 399 398
1  399
8
0 1 0 1 1 0 0 1
8
1 0 0 1 0 1 0 1
8
0 1 1 0 1 0 1 0
8
0 1 1 0 1 0 1 0
8
1 0 1 0 1 0 0 1
8
0.5323656652233697 0.46763433477663036 0.5301549354817929 0.4698450645182071 0.22137501785174937 0.7786249821482506 0.4915750954460904 0.5084249045539097
8
0.2172525709128442 0.7827474290871558 0.011394319106079862 0.9886056808939201 0.52294391258737 0.4770560874126299 0.3556889709767145 0.6443110290232855
8
0 1 0 1 1 0 0 1
8
0 1 1 0 1 0 1 0
8
0.5549374122530194 0.4450625877469806 0.943015027372168 0.056984972627832045 0.6892964504949756 0.3107035495050244 0.8492128626397831 0.15078713736021684
8
0.5166057951796647 0.4833942048203354 0.5148730369982195 0.4851269630017805 0.36984387625031334 0.6301561237496867 0.2088443615540125 0.7911556384459875
8
0 1 0 1 0 1 1 0
8
0 1 1 0 1 0 0 1
8
1 0 1 0 1 0 0 1
8
0 1 1 0 1 0 0 1
8
1 0 0 1 1 0 1 0
8
0 1 0 1 0 1 1 0
8
0.0015564216830366315 0.9984435783169634 0.602992845385579 0.3970071546144211 0.519277113067145 0.48072288693285503 0.5304917188355678 0.4695082811644322
8
0 1 0 1 0 1 1 0
4
0 1 0 1
8
0 1 0 1 0 1 0 1
8
1 0 0 1 0 1 0 1
8
0 1 0 1 1 0 0 1
8
1 0 0 1 1 0 0 1
8
1 0 0 1 0 1 0 1
8
0.10767144883381286 0.8923285511661873 0.8460091449205587 0.15399085507944146 0.4282710318278927 0.5717289681721073 0.7298626484710395 0.27013735152896046
8
1 0 1 0 1 0 1 0
8
0 1 0 1 0 1 0 1
8
1 0 1 0 1 0 1 0
8
1 0 0 1 0 1 0 1
8
1 0 1 0 1 0 1 0
8
1 0 1 0 0 1 0 1
8
1 0 1 0 0 1 1 0
8
0 1 0 1 1 0 1 0
8
0 1 1 0 0 1 1 0
8
0 1 0 1 1 0 0 1
8
1 0 1 0 0 1 0 1
8
1 0 0 1 0 1 0 1
8
0 1 0 1 0 1 1 0
4
0 1 0 1
8
1 0 1 0 1 0 1 0
8
1 0 1 0 1 0 0 1
8
0.36463989105602446 0.6353601089439755 0.8723796664049122 0.1276203335950878 0.2532011281273422 0.7467988718726577 0.4533601448548579 0.546639855145142
8
1 0 0 1 0 1 0 1
8
1 0 1 0 1 0 1 0
8
0.9124265958756297 0.08757340412437031 0.2067853809119008 0.7932146190880991 0.16101899232178205 0.8389810076782179 0.23999491325909927 0.7600050867409007
8
0 1 1 0 0 1 0 1
8
1 0 1 0 0 1 1 0
8
1 0 1 0 1 0 1 0
8
1 0 0 1 0 1 0 1
8
0 1 0 1 1 0 0 1
8
0 1 0 1 0 1 1 0
8
1 0 1 0 1 0 0 1
8
0 1 1 0 1 0 0 1
8
1 0 0 1 0 1 1 0
8
1 0 0 1 0 1 1 0
8
0 1 1 0 1 0 1 0
8
0.2551272843945882 0.7448727156054118 0.029821359762302376 0.9701786402376976 0.9041657823583558 0.09583421764164418 0.9125337734073108 0.08746622659268921
8
1 0 1 0 1 0 1 0
4
0 1 1 0
8
0 1 0 1 1 0 1 0
8
1 0 1 0 1 0 0 1
8
1 0 1 0 1 0 0 1
8
0 1 1 0 1 0 1 0
8
0 1 1 0 1 0 0 1
8
1 0 0 1 0 1 0 1
8
0 1 1 0 0 1 1 0
8
1 0 0 1 1 0 0 1
8
1 0 1 0 1 0 0 1
8
0 1 1 0 0 1 1 0
8
0 1 0 1 1 0 1 0
8
0 1 0 1 1 0 1 0
8
1 0 1 0 0 1 0 1
8
1 0 1 0 0 1 0 1
8
1 0 1 0 1 0 0 1
8
0 1 1 0 0 1 0 1
8
1 0 0 1 1 0 1 0
8
0 1 1 0 0 1 1 0
8
1 0 0 1 1 0 0 1
4
1 0 0 1
8
0 1 0 1 1 0 1 0
8
0 1 1 0 1 0 1 0
8
1 0 1 0 1 0 0 1
8
0 1 1 0 1 0 1 0
8
0 1 1 0 1 0 0 1
8
1 0 1 0 1 0 1 0
8
1 0 0 1 0 1 1 0
8
0 1 1 0 0 1 1 0
8
1 0 1 0 0 1 0 1
8
0 1 1 0 0 1 0 1
8
0 1 1 0 1 0 1 0
8
0 1 1 0 1 0 0 1
8
0 1 0 1 0 1 1 0
8
0 1 1 0 0 1 1 0
8
0 1 0 1 0 1 0 1
8
1 0 1 0 1 0 0 1
8
0 1 1 0 1 0 1 0
8
0 1 1 0 1 0 0 1
8
1 0 1 0 0 1 0 1
4
0 1 1 0
8
0 1 0 1 1 0 0 1
8
0 1 0 1 1 0 1 0
8
0 1 0 1 0 1 1 0
8
1 0 0 1 1 0 0 1
8
0.866980282517417 0.13301971748258307 0.1722028084023009 0.8277971915976992 0.38927269797639724 0.6107273020236029 0.36444021338712596 0.6355597866128742
8
0 1 1 0 1 0 0 1
8
1 0 0 1 1 0 0 1
8
0 1 1 0 1 0 1 0
8
1 0 1 0 1 0 1 0
8
1 0 1 0 1 0 1 0
8
0 1 0 1 1 0 1 0
8
1 0 0 1 0 1 1 0
8
0.3607069131431104 0.6392930868568897 0.3824817390505164 0.6175182609494836 0.38901052224870275 0.6109894777512972 0.343960785898489 0.656039214101511
8
0 1 1 0 0 1 0 1
8
1 0 0 1 0 1 1 0
8
0 1 0 1 1 0 0 1
8
1 0 1 0 0 1 0 1
8
0 1 1 0 0 1 1 0
8
0 1 0 1 0 1 1 0
4
1 0 1 0
8
1 0 1 0 0 1 1 0
8
1 0 1 0 1 0 0 1
8
0 1 0 1 1 0 1 0
8
0 1 1 0 1 0 0 1
8
1 0 0 1 1 0 0 1
8
0 1 1 0 0 1 1 0
8
0 1 1 0 1 0 0 1
8
1 0 0 1 0 1 0 1
8
1 0 0 1 1 0 1 0
8
1 0 1 0 0 1 0 1
8
0 1 1 0 0 1 1 0
8
1 0 0 1 0 1 0 1
8
1 0 0 1 0 1 0 1
8
1 0 1 0 1 0 0 1
8
0 1 0 1 0 1 0 1
8
0 1 0 1 1 0 1 0
8
0 1 1 0 1 0 1 0
8
1 0 0 1 1 0 1 0
8
1 0 0 1 0 1 1 0
4
1 0 1 0
8
0 1 1 0 1 0 0 1
8
1 0 1 0 1 0 0 1
8
1 0 0 1 1 0 0 1
8
0 1 1 0 0 1 0 1
8
1 0 0 1 0 1 0 1
8
1 0 0 1 1 0 1 0
8
1 0 1 0 0 1 0 1
8
1 0 1 0 1 0 0 1
8
1 0 1 0 0 1 1 0
8
0.7721010095907922 0.22789899040920772 0.3022529443621428 0.6977470556378572 0.6669123632988316 0.3330876367011684 0.11626991603634892 0.883730083963651
8
0 1 1 0 0 1 0 1
8
0 1 1 0 0 1 1 0
8
0 1 0 1 0 1 1 0
8
0 1 0 1 1 0 0 1
8
0 1 0 1 1 0 0 1
8
0 1 0 1 0 1 0 1
8
0 1 0 1 1 0 0 1
8
1 0 1 0 0 1 1 0
8
0 1 1 0 0 1 0 1
4
1 0 0 1
8
1 0 1 0 1 0 0 1
8
0.3649909680398633 0.6350090319601367 0.5493134664840119 0.45068653351598803 0.13090491954588307 0.8690950804541169 0.5734251919911761 0.42657480800882386
8
0 1 0 1 1 0 0 1
8
0 1 1 0 1 0 0 1
8
1 0 1 0 1 0 0 1
8
0 1 0 1 1 0 0 1
8
1 0 0 1 0 1 1 0
8
0 1 1 0 0 1 0 1
8
0 1 1 0 1 0 1 0
8
0 1 0 1 1 0 0 1
8
1 0 0 1 1 0 0 1
8
1 0 1 0 1 0 0 1
8
1 0 0 1 1 0 1 0
8
0 1 1 0 0 1 0 1
8
1 0 0 1 1 0 0 1
8
0.057603516315610476 0.9423964836843896 0.47691998553704223 0.5230800144629578 0.24615397098661274 0.7538460290133873 0.6511053430722021 0.3488946569277978
8
1 0 0 1 1 0 0 1
8
1 0 1 0 1 0 1 0
8
1 0 1 0 1 0 0 1
4
0 1 0 1
8
0 1 1 0 0 1 1 0
8
0.4299264956344932 0.5700735043655069 0.9848583355782304 0.015141664421769556 0.4292130844191193 0.5707869155808806 0.5133718372738698 0.4866281627261301
8
0 1 0 1 0 1 1 0
8
1 0 1 0 0 1 0 1
8
1 0 1 0 0 1 0 1
8
0 1 0 1 0 1 0 1
8
1 0 1 0 1 0 0 1
8
0 1 1 0 0 1 0 1
8
1 0 1 0 0 1 1 0
8
1 0 1 0 1 0 0 1
8
1 0 1 0 1 0 0 1
8
1 0 0 1 1 0 0 1
8
1 0 1 0 1 0 0 1
8
0.43408389357521077 0.5659161064247893 0.29490341440861106 0.705096585591389 0.3125346626445015 0.6874653373554985 0.6548083500962354 0.34519164990376455
8
1 0 1 0 0 1 1 0
8
1 0 1 0 0 1 0 1
8
0 1 1 0 0 1 1 0
8
1 0 1 0 0 1 1 0
8
0 1 0 1 1 0 0 1
4
1 0 1 0
8
0 1 0 1 0 1 0 1
8
0 1 0 1 1 0 1 0
8
1 0 1 0 0 1 1 0
8
0 1 0 1 1 0 0 1
8
1 0 1 0 0 1 0 1
8
1 0 0 1 0 1 0 1
8
1 0 1 0 0 1 0 1
8
0 1 1 0 0 1 0 1
8
1 0 1 0 1 0 1 0
8
0.9434520038891964 0.05654799611080368 0.867723690641588 0.13227630935841195 0.42256431867495886 0.5774356813250412 0.273603961152122 0.7263960388478782
8
0.13822857558749696 0.8617714244125031 0.6274325897724223 0.3725674102275778 0.5912198339284844 0.4087801660715156 0.2618422646599232 0.7381577353400769
8
0 1 0 1 0 1 0 1
8
1 0 0 1 1 0 0 1
8
1 0 0 1 1 0 1 0
8
0 1 1 0 0 1 0 1
8
1 0 0 1 0 1 1 0
8
0 1 0 1 1 0 1 0
8
0.3414867376711739 0.6585132623288261 0.9966284460759255 0.003371553924074516 0.7877816682240499 0.21221833177594993 0.15660691965170986 0.8433930803482901
8
0.6363719690832322 0.36362803091676776 0.7064700920128484 0.2935299079871516 0.4881806517552167 0.5118193482447833 0.6950875985542238 0.30491240144577625
4
0 1 0 1
8
1 0 1 0 1 0 1 0
8
0 1 1 0 1 0 1 0
8
0 1 0 1 1 0 0 1
8
1 0 1 0 0 1 0 1
8
1 0 1 0 1 0 0 1
8
0 1 0 1 1 0 1 0
8
0 1 0 1 1 0 0 1
8
1 0 1 0 0 1 1 0
8
0.4763294313895987 0.5236705686104012 0.6866529987430039 0.3133470012569962 0.19763464361806324 0.8023653563819367 0.5256079153773234 0.4743920846226765
8
0 1 0 1 0 1 1 0
8
1 0 0 1 1 0 1 0
8
1 0 1 0 0 1 1 0
8
0 1 0 1 1 0 0 1
8
1 0 0 1 1 0 1 0
8
1 0 0 1 0 1 0 1
8
0 1 1 0 1 0 0 1
8
0 1 0 1 0 1 0 1
8
1 0 1 0 1 0 0 1
8
1 0 1 0 0 1 0 1
4
1 0 1 0
8
1 0 0 1 1 0 0 1
8
1 0 0 1 0 1 0 1
8
0 1 1 0 1 0 1 0
8
0 1 1 0 0 1 0 1
8
0 1 1 0 1 0 1 0
8
1 0 1 0 0 1 0 1
8
1 0 0 1 0 1 0 1
8
1 0 0 1 1 0 1 0
8
1 0 1 0 1 0 0 1
8
0 1 0 1 1 0 0 1
8
0 1 1 0 1 0 1 0
8
0.6548169921916298 0.3451830078083702 0.31497523224425 0.6850247677557499 0.4954993510262046 0.5045006489737954 0.6395740496221045 0.36042595037789554
8
0.46774859846739775 0.5322514015326023 0.6592700321711148 0.34072996782888515 0.2975947806709505 0.7024052193290494 0.47601214362787997 0.5239878563721201
8
0 1 0 1 0 1 0 1
8
1 0 1 0 1 0 0 1
8
0.5680651631894036 0.4319348368105963 0.5715576724554478 0.42844232754455225 0.5631493282316173 0.43685067176838266 0.5201354915609284 0.47986450843907164
8
0 1 0 1 0 1 1 0
8
0 1 1 0 0 1 1 0
8
0 1 1 0 0 1 0 1
4
1 0 1 0
8
0 1 1 0 1 0 1 0
8
0.1939966369798791 0.8060033630201209 0.014901197916869422 0.9850988020831306 0.6444062988291027 0.3555937011708973 0.7868262945620895 0.21317370543791034
8
1 0 1 0 1 0 0 1
8
0 1 1 0 1 0 1 0
8
0 1 1 0 0 1 1 0
8
0 1 1 0 1 0 0 1
8
0 1 0 1 0 1 0 1
8
0 1 0 1 1 0 1 0
8
0 1 0 1 0 1 0 1
8
0.5199200936278645 0.48007990637213555 0.7509196427493335 0.24908035725066635 0.4928122383121394 0.5071877616878606 0.3795152087789592 0.6204847912210407
8
0.04047705167906243 0.9595229483209375 0.5197826765996758 0.4802173234003242 0.7252906098890355 0.27470939011096446 0.3613091676637073 0.6386908323362926
8
1 0 0 1 1 0 0 1
8
0 1 0 1 0 1 1 0
8
0 1 1 0 1 0 1 0
8
0 1 1 0 0 1 0 1
8
0.6863201891514139 0.3136798108485861 0.9655730904622468 0.03442690953775317 0.25301492737215037 0.7469850726278497 0.3110415107746673 0.6889584892253328
8
1 0 1 0 0 1 0 1
8
0.4679106446964667 0.5320893553035333 0.5753305006800784 0.42466949931992143 0.2193159357424221 0.7806840642575779 0.036560413474649216 0.9634395865253508
8
1 0 1 0 0 1 0 1
4
1 0 1 0
8
0 1 0 1 1 0 0 1
8
1 0 0 1 1 0 1 0
8
0 1 0 1 1 0 0 1
8
1 0 1 0 1 0 0 1
8
0 1 0 1 1 0 1 0
8
0 1 0 1 1 0 1 0
8
1 0 0 1 1 0 1 0
8
0 1 0 1 1 0 0 1
8
0 1 1 0 1 0 1 0
8
1 0 1 0 1 0 1 0
8
0 1 0 1 1 0 0 1
8
1 0 1 0 1 0 1 0
8
0 1 0 1 0 1 1 0
8
1 0 0 1 0 1 1 0
8
1 0 0 1 1 0 0 1
8
1 0 1 0 1 0 0 1
8
0 1 1 0 0 1 0 1
8
0 1 1 0 0 1 1 0
8
0 1 0 1 0 1 0 1
4
0 1 0 1
8
0 1 0 1 0 1 0 1
8
1 0 1 0 1 0 1 0
8
1 0 1 0 1 0 0 1
8
0 1 1 0 0 1 0 1
8
1 0 1 0 1 0 1 0
8
0 1 1 0 0 1 0 1
8
0 1 0 1 0 1 1 0
8
0 1 1 0 0 1 0 1
8
0 1 0 1 1 0 0 1
8
0 1 0 1 1 0 0 1
8
1 0 1 0 1 0 0 1
8
0 1 1 0 1 0 0 1
8
1 0 1 0 1 0 0 1
8
1 0 0 1 0 1 1 0
8
1 0 0 1 1 0 1 0
8
0 1 0 1 1 0 1 0
8
0.6212465575782037 0.37875344242179626 0.5601337758832973 0.4398662241167028 0.40511283125511943 0.5948871687448807 0.20340090454918747 0.7965990954508125
8
0 1 1 0 0 1 1 0
8
0.36713724844655776 0.6328627515534423 0.544328513185391 0.45567148681460895 0.5450896790658056 0.4549103209341944 0.3459758661275545 0.6540241338724455
4
0 1 1 0
8
0 1 1 0 0 1 0 1
8
0 1 0 1 1 0 0 1
8
0 1 1 0 1 0 1 0
8
0 1 0 1 1 0 1 0
8
1 0 0 1 0 1 1 0
8
0.5768182732961235 0.42318172670387655 0.997271783904227 0.002728216095773021 0.5188367792804467 0.48116322071955336 0.5068117239450549 0.49318827605494514
8
1 0 1 0 1 0 1 0
8
1 0 0 1 0 1 0 1
8
1 0 1 0 1 0 0 1
8
0 1 1 0 0 1 1 0
8
1 0 1 0 1 0 0 1
8
0 1 0 1 0 1 1 0
8
0.7164268569067433 0.2835731430932567 0.7808035579239146 0.21919644207608527 0.24401098459111797 0.755989015408882 0.49831129975949645 0.5016887002405035
8
1 0 0 1 1 0 1 0
8
0.35663556957012177 0.6433644304298782 0.8890099274258032 0.11099007257419674 0.34583926597653547 0.6541607340234646 0.6964445638855585 0.30355543611444147
8
1 0 1 0 0 1 0 1
8
0.656771324733301 0.3432286752666989 0.29070170916868526 0.7092982908313148 0.7953938474289802 0.20460615257101977 0.9808210374842936 0.019178962515706444
8
1 0 0 1 1 0 0 1
8
0 1 0 1 1 0 0 1
4
1 0 1 0
8
0 1 0 1 1 0 1 0
8
0 1 0 1 0 1 1 0
8
1 0 0 1 1 0 0 1
8
0 1 0 1 0 1 0 1
8
1 0 0 1 1 0 1 0
8
0 1 0 1 1 0 1 0
8
0 1 0 1 1 0 1 0
8
0 1 0 1 1 0 0 1
8
0 1 1 0 1 0 0 1
8
0.0344203339072523 0.9655796660927477 0.34739917422780225 0.6526008257721978 0.3534402221511807 0.6465597778488194 0.5373651903380424 0.46263480966195764
8
0 1 1 0 1 0 1 0
8
1 0 1 0 0 1 1 0
8
1 0 0 1 0 1 0 1
8
0 1 1 0 0 1 0 1
8
0 1 0 1 0 1 0 1
8
1 0 0 1 0 1 1 0
8
0 1 1 0 0 1 1 0
8
1 0 1 0 1 0 1 0
8
1 0 0 1 1 0 0 1
4
1 0 1 0
8
0 1 0 1 0 1 0 1
8
0 1 0 1 0 1 1 0
8
0 1 1 0 1 0 1 0
8
1 0 0 1 1 0 0 1
8
0 1 1 0 0 1 1 0
8
0 1 0 1 0 1 0 1
8
0.47780824754809875 0.5221917524519013 0.1512318915368106 0.8487681084631893 0.14062802498164875 0.8593719750183513 0.02196263420398649 0.9780373657960135
8
1 0 0 1 0 1 0 1
8
1 0 1 0 0 1 0 1
8
1 0 1 0 0 1 0 1
8
1 0 1 0 1 0 1 0
8
1 0 1 0 0 1 1 0
8
0 1 1 0 0 1 1 0
8
0.5044923803992307 0.4955076196007692 0.36539785017107634 0.6346021498289236 0.03606667780769829 0.9639333221923018 0.507869622084479 0.49213037791552094
8
0 1 1 0 0 1 1 0
8
0 1 0 1 1 0 0 1
8
0.6895055811725085 0.31049441882749146 0.4341870498130929 0.565812950186907 0.5164631853829394 0.4835368146170605 0.7566014452855994 0.2433985547144007
8
0 1 1 0 0 1 0 1
8
0 1 1 0 0 1 0 1
4
1 0 0 1
4
0 1 0 1
4
1 0 0 1
4
1 0 0 1
4
0 1 1 0
4
0 1 1 0
4
1 0 0 1
4
1 0 0 1
4
1 0 1 0
4
1 0 0 1
4
0 1 1 0
4
0 1 1 0
4
0 1 0 1
4
1 0 1 0
4
0 1 0 1
4
1 0 1 0
4
0.8259936048556925 0.1740063951443074 0.9806264511789577 0.01937354882104226
4
0 1 1 0
4
1 0 1 0
4
0 1 1 0
2
1 0
